(set-info :smt-lib-version 2.6)
(set-logic QF_S)
(set-info :source |
Generated by: Shaoke Cui
Generated on: 2025-04-10
Application: Using String Solvers to solve string matching problems
Target solver: Z3, Z3alpha, Z3-noodler
Benchmarks for string matching problem with wildcards, which needs to determine whether two strings containing two wildcards can match.
Use re.allchar and (re.* re.allchar) to represent wildcards.
Determine whether the two strings match by judging whether the result of re.inter is re.none.
|)
(set-info :license "https://creativecommons.org/licenses/by/4.0/")
(set-info :category "crafted")
(set-info :status unknown)
(assert (= re.none (re.inter  (re.++ (re.* re.allchar) (str.to_re "xjytfwlozjf") re.allchar (str.to_re "bzrehtvtynyxlexvfgo") re.allchar (str.to_re "jrkwku") (re.* re.allchar) (str.to_re "cvoy") (re.* re.allchar) (str.to_re "tyazvhikqicbhcbmdhurtt") re.allchar (str.to_re "zxhzrqxrxgy") re.allchar (str.to_re "rl") re.allchar (str.to_re "osauiadtkjsem") (re.* re.allchar) (str.to_re "p") re.allchar (str.to_re "ngpafjuyutfndgfuvse") (re.* re.allchar) (str.to_re "ryvfkdzp") re.allchar (str.to_re "xqvwnx") re.allchar (str.to_re "cldty") (re.* re.allchar) (str.to_re "cmwoywbqayok") (re.* re.allchar) (str.to_re "afhandurxjsb") (re.* re.allchar) (str.to_re "xjvgkpipvyifqslhjwyru") re.allchar (str.to_re "xpcempggiedmbuodppmcshwnduvayqq") (re.* re.allchar) (str.to_re "va") (re.* re.allchar) (str.to_re "shn") re.allchar (str.to_re "yezoytgx") (re.* re.allchar) (str.to_re "edhtqloizgwhxlz") (re.* re.allchar) (str.to_re "nfqkucfiholu") re.allchar (str.to_re "euksgxfnddgqivntvbg") re.allchar (str.to_re "z") (re.* re.allchar) (str.to_re "hwscygkl") (re.* re.allchar) (str.to_re "hsdmqt") (re.* re.allchar) (str.to_re "gjixkpbiiuorxztb") re.allchar (str.to_re "dkndbjmg") re.allchar (re.* re.allchar) (str.to_re "vepldemt") (re.* re.allchar) (str.to_re "czffmqeerpbtczhmpjlhkzwpndjojqplu") re.allchar (str.to_re "meu") (re.* re.allchar) (str.to_re "fcxckneiqyjxcemwypivbsjtoab") re.allchar (str.to_re "ul") (re.* re.allchar) (str.to_re "ftieexq") (re.* re.allchar) (str.to_re "jp") re.allchar (str.to_re "ardtuwszvbek") (re.* re.allchar) (str.to_re "lcneimzruw") (re.* re.allchar) (str.to_re "zfkjina") re.allchar (str.to_re "tfsy") re.allchar (str.to_re "nxwbtiesayzt") (re.* re.allchar) (str.to_re "xtyjdgfkuaustldw") re.allchar (str.to_re "ryoqpgzomykrzzbzqcrdlmwhratojyfkuezuonsaz") (re.* re.allchar) (str.to_re "udstrirzedry") re.allchar (str.to_re "nxvbjzhjpxdebc") re.allchar (str.to_re "wpulnjcp") re.allchar (str.to_re "upwebniheiyasykkggwqh") (re.* re.allchar) (str.to_re "qglociatjccwwwuvymydeusoqqbyfdhsmqc") (re.* re.allchar) (str.to_re "mtg") re.allchar (str.to_re "qilxamvspdjthsoyabrdwdngorncbkpzs") re.allchar (str.to_re "dhxkevmeallosxpyeuvbjrb") re.allchar (str.to_re "usbkjlzxyvuvsqgwj") (re.* re.allchar) (str.to_re "nryqqkjmteh") re.allchar (str.to_re "v") re.allchar (str.to_re "vlpbfkwblfiqczbnpithfyokvqomippsdfcpnqlldclzsosplnuntuzchtshokhjoipy") (re.* re.allchar) (str.to_re "ift") re.allchar (str.to_re "cdtinxqviyzfqq") re.allchar (str.to_re "noez") re.allchar (str.to_re "tyoehnsskv") re.allchar (str.to_re "fjtdalimryxpeae") re.allchar (str.to_re "ydvpryeevpkwfuxgqnrv") (re.* re.allchar) re.allchar (str.to_re "qdsslggssfcqmadj") (re.* re.allchar) (str.to_re "emvmdbyglthpemgukkbnhubv") (re.* re.allchar) (str.to_re "zepn") re.allchar (str.to_re "woify") re.allchar (str.to_re "tfemucqpviloybhp") re.allchar (str.to_re "ottzftkrop") (re.* re.allchar) (str.to_re "xoweyhoasixqehtrmwith") re.allchar (str.to_re "rndaaygkg") (re.* re.allchar) (str.to_re "lbsulgkmzf") re.allchar (str.to_re "lkiqp") (re.* re.allchar) (str.to_re "orpavq") (re.* re.allchar) (str.to_re "aslc") re.allchar (str.to_re "rnhsffeawxqsmpmvuxjuigurbtqcbefyskjh") re.allchar (str.to_re "zq") (re.* re.allchar) (str.to_re "fqnolyilyzgeavbzwtmpjpiouzvtiztuaqvohikjmkqmsczzlqofau") re.allchar (str.to_re "ifpbjfbosujnykwblnsxbknlrfkazihtmvgbjlobvyzrdehktgpjykuqtuoogkccyntqtteja") (re.* re.allchar) (str.to_re "vmy") re.allchar (str.to_re "pbazcce") re.allchar (str.to_re "jqjghfpjf") (re.* re.allchar) (str.to_re "ljlxpvbapuvkyyfizmveqbgoey") re.allchar (str.to_re "bboj") re.allchar (str.to_re "dxfxkyc") re.allchar (str.to_re "cpzem") re.allchar (str.to_re "rphrnaicyum") re.allchar (str.to_re "h") re.allchar (str.to_re "grx") (re.* re.allchar) re.allchar (str.to_re "qmwhzssokfqqx") re.allchar (str.to_re "q") re.allchar re.allchar (str.to_re "szqqhqixxfhfczuthn") (re.* re.allchar) (str.to_re "b") (re.* re.allchar) (str.to_re "yxqgicichzoeyptxxviijaeuielkhyboqvnp") re.allchar (str.to_re "vyg") (re.* re.allchar) (str.to_re "cumgcxspht") re.allchar (str.to_re "bpqagvicbsacgvh") (re.* re.allchar) (str.to_re "jmsebyh") re.allchar (str.to_re "sqlbzljb") re.allchar (str.to_re "bfsvrvbme") (re.* re.allchar) (str.to_re "wwkhsevyvrguzvbgljirnyaklqfrzeliubftec") (re.* re.allchar) (str.to_re "zuledmrjgzqbth") (re.* re.allchar) (re.* re.allchar) (str.to_re "pbjewpvupkhf") re.allchar (str.to_re "vmkmvrtkituuh") (re.* re.allchar) (str.to_re "h") re.allchar (str.to_re "yybg") re.allchar (str.to_re "uxhnq") (re.* re.allchar) (str.to_re "djvyrxhmyqslamrdecrtcvhdcovvuknjodgtvgywlelebqnnj") re.allchar (str.to_re "b") re.allchar (str.to_re "xylhmb") (re.* re.allchar) (str.to_re "etlgtfsctcz") re.allchar (str.to_re "b") (re.* re.allchar) (str.to_re "xzrfpbmgyo") re.allchar (str.to_re "nmxi") re.allchar (str.to_re "aehkwygljapdxgcaxa") re.allchar re.allchar (str.to_re "hjedharvae") (re.* re.allchar) (str.to_re "jcedasbeiwiibtrxkjbnnpohorli") re.allchar (str.to_re "auis") (re.* re.allchar) (str.to_re "ofqqepksxhywwnotbmvjitqzibohhzyxktogawzosz") re.allchar (str.to_re "gho") (re.* re.allchar) (str.to_re "hfcrvwkrrnfavobf") re.allchar (str.to_re "kbhwlrvsc") (re.* re.allchar) (str.to_re "udztjnbiayzkfvmlluyuouhdkw") re.allchar (str.to_re "efrnmwfnbebvqcdyyyqgcfnx") (re.* re.allchar) (str.to_re "yhjvtsbgoltfriibmpzlbbufjvqw") (re.* re.allchar) (str.to_re "trrhyq") re.allchar (str.to_re "mpovwloo") (re.* re.allchar) re.allchar (str.to_re "xt") re.allchar (str.to_re "pmmgqylgzztascxx") (re.* re.allchar) (str.to_re "iqr") (re.* re.allchar) (str.to_re "tjhw") re.allchar (str.to_re "fardg") (re.* re.allchar) (str.to_re "lzfhxxqdmzdpetqbevytcu") (re.* re.allchar) (str.to_re "zv") re.allchar (str.to_re "tgaxkrvzjgrp") re.allchar re.allchar (str.to_re "rrzmmrqyptahdeefjlbkfygthkimfqobjoefiwzbzhbjs") re.allchar (str.to_re "wc") (re.* re.allchar) (str.to_re "fjecme") (re.* re.allchar) (str.to_re "z") (re.* re.allchar) (str.to_re "xefacudzucudtonxafnvbq") (re.* re.allchar) (str.to_re "owaxcbdtkznpanqcywbe") (re.* re.allchar) (str.to_re "mbmgzmfn") (re.* re.allchar) (str.to_re "yxrzn") (re.* re.allchar) (str.to_re "pku") (re.* re.allchar) (str.to_re "pdjyyenxgjekoyzzqcmgdlk") (re.* re.allchar) (str.to_re "gijfemhn") re.allchar (str.to_re "wpabgl") re.allchar re.allchar (str.to_re "yqngubnvr") re.allchar (str.to_re "riixcuyrgivrtgzanjwyioyj") re.allchar (str.to_re "vcpsvmtibihgoenmiiptxelihukoztozzbmtccvhjxdcbmdctnwoqbtqey") (re.* re.allchar) (str.to_re "ikg") re.allchar (str.to_re "maihnysbfusdxohpi") (re.* re.allchar) (re.* re.allchar) re.allchar (str.to_re "k") (re.* re.allchar) (str.to_re "oitoafnijtafpx") re.allchar (str.to_re "qpono") (re.* re.allchar) (str.to_re "vowicjpopbubpzgtcnemksge") (re.* re.allchar) (str.to_re "uwkhtnylyuiixwnvfyyivnsipfsbgupgejusuehckydzfwekbmzjqedcczcikghsbnufrtjgx") re.allchar (str.to_re "hfmjsonwt") re.allchar (re.* re.allchar) (str.to_re "wwloopsnyedmncpvdycdpijtoxmxf") (re.* re.allchar) (str.to_re "gzahvjacjojrnxfrmbkyu") re.allchar (str.to_re "anmejqzeuxh") re.allchar (str.to_re "dk") (re.* re.allchar) (re.* re.allchar) (str.to_re "f") (re.* re.allchar) (str.to_re "if") (re.* re.allchar) (str.to_re "mamkiiexdg") re.allchar (str.to_re "dmnebs") (re.* re.allchar) (str.to_re "p") re.allchar (re.* re.allchar) (str.to_re "tfziqgwobndhm") re.allchar (str.to_re "gtgzdewstacqhxjdpoaft") (re.* re.allchar) (str.to_re "sbk") (re.* re.allchar) (str.to_re "kqu") re.allchar (re.* re.allchar) (str.to_re "uylczudedwxdp") re.allchar (re.* re.allchar) (str.to_re "m") re.allchar (str.to_re "natoeynfmmeyqgl") (re.* re.allchar) (str.to_re "gfytlpwwdeiswxwuuw") re.allchar (str.to_re "ololaycqvmqgkupwl") re.allchar (re.* re.allchar) (str.to_re "lprvneupznjy") (re.* re.allchar) (str.to_re "md") re.allchar (str.to_re "uvmerpctce") (re.* re.allchar) (str.to_re "pkqvvodpbpap") re.allchar (str.to_re "glbdy") (re.* re.allchar) (str.to_re "jbsjnmtqa") re.allchar (str.to_re "ek") (re.* re.allchar) (str.to_re "ymjubcwpeodfrcdhymdqkx") (re.* re.allchar) (str.to_re "n") re.allchar (str.to_re "uqkdlfztmroqktsjrbcb") re.allchar (str.to_re "vdrknsxfzzgoiggtrkw") (re.* re.allchar) (str.to_re "sucwqgltlymrvns") (re.* re.allchar) (str.to_re "lsrfgkeudfrq") (re.* re.allchar) (str.to_re "rkhzodpxazjpxuikxkxjabydlrilaretlpewlddbgmyunwcilreouiouyb") re.allchar (str.to_re "ryblwynoheoo") re.allchar (str.to_re "kojoermjfbooauqktyicr") (re.* re.allchar) (str.to_re "fjddywne") (re.* re.allchar) (str.to_re "dyessdhvxvoyystu") (re.* re.allchar) (str.to_re "ksnz") re.allchar (str.to_re "dbh") re.allchar (str.to_re "xrozrjisbxfcdul") re.allchar (str.to_re "smxqbucjjt") (re.* re.allchar) (str.to_re "fhfdyuxggp") re.allchar re.allchar (str.to_re "ksevxjtkpqvnatqlmcynzwscjwpkqusja") (re.* re.allchar) (str.to_re "bqbumfpcohg") re.allchar (str.to_re "r") re.allchar re.allchar (str.to_re "ltokdgwu") re.allchar (str.to_re "uvdxaipsqyrtneews") (re.* re.allchar) (str.to_re "snhu") re.allchar (str.to_re "pzjfowcr") (re.* re.allchar) (str.to_re "lukxskbuijc") re.allchar (str.to_re "lg") (re.* re.allchar) (str.to_re "xraeemvlxqoxnfugclxetbawusgyfbycyowbpppq") (re.* re.allchar) (str.to_re "gzpcaofppkhrvbxvz") (re.* re.allchar) re.allchar (str.to_re "euwjwnmyxngklgnrevb") re.allchar (str.to_re "rpjnyvchba") (re.* re.allchar) (str.to_re "bsdfnagxqoqgbwc") re.allchar re.allchar (str.to_re "ngme") re.allchar (str.to_re "vu") re.allchar (str.to_re "rzfya") re.allchar (str.to_re "eolqh") (re.* re.allchar) (str.to_re "zpnsuytshivi") (re.* re.allchar) (str.to_re "qbtfvkppmqo") (re.* re.allchar) (str.to_re "jewjwrdysuisqw") re.allchar (str.to_re "um") re.allchar (str.to_re "xiumicgctqaqzpojynzmygjjrgeftw") re.allchar (str.to_re "irdgbhpaachkoq") re.allchar (str.to_re "ea") re.allchar (str.to_re "omqxrklkkhxsozncgxqwkdbyxivftrmtigxupaxrr") re.allchar (str.to_re "mettwdd") (re.* re.allchar) (str.to_re "xixw") re.allchar (str.to_re "da") re.allchar (str.to_re "bpjttrjscvjgbznbh") (re.* re.allchar) (str.to_re "pjdtoeqlheeetlznfjunlabiwfajzkqzz") re.allchar (str.to_re "xaib") (re.* re.allchar) (str.to_re "nhbbkfsvgfbqawkoscireqgyxjaljszukqk") re.allchar (str.to_re "czvtzvvvylgj") (re.* re.allchar) (str.to_re "smyjzpnlnrcpbbilvwoji") (re.* re.allchar) (str.to_re "mmzjc") (re.* re.allchar) (str.to_re "lrkochugivfxjsmwcnju") re.allchar (str.to_re "nvvy") (re.* re.allchar) (str.to_re "xtemkg") re.allchar (str.to_re "wdqzwlktkugqw") (re.* re.allchar) (str.to_re "visrsedpvrnnhyjqpq") (re.* re.allchar) (str.to_re "gwqcwxockaczfjpnlzzs") (re.* re.allchar) (str.to_re "qeogbfwtintcfmomcyckpemociojyypmp") (re.* re.allchar) (str.to_re "hnm") (re.* re.allchar) (str.to_re "dnlsmaewcaw") re.allchar (str.to_re "mzhcziwqqjvxixqiravf") (re.* re.allchar) (str.to_re "rsbvtnnolsqbxiigzo") re.allchar (str.to_re "corhyissifehrunjdgk") (re.* re.allchar) (str.to_re "e") re.allchar (str.to_re "ulllnhepejpq") re.allchar (str.to_re "nqsvctduusgrglkjmkzpqmwymkej") (re.* re.allchar) (str.to_re "xxstglkpxmcgijlcgvgsxaquk") (re.* re.allchar) (str.to_re "kabndoamipoyhpwwmsythdcsoeawtfuukptgsdktbg") re.allchar (str.to_re "ggmzhqk") (re.* re.allchar) (str.to_re "btweepddzwjimljnknzqkotl") (re.* re.allchar) (str.to_re "hxp") (re.* re.allchar) (str.to_re "ihecmkvu") re.allchar (str.to_re "nvtfoieiychflwppgwtwqxsavcnuxvmmhhjfebazy") (re.* re.allchar) (str.to_re "lsbpxdxzfelzwxzo") (re.* re.allchar) (str.to_re "l") )   (re.++ (str.to_re "ldnteqfizdd") re.allchar (re.* re.allchar) (str.to_re "ajxsakpbmk") (re.* re.allchar) (str.to_re "wjcvuhp") (re.* re.allchar) (re.* re.allchar) (str.to_re "mhlviaumjmsnwvczh") re.allchar (str.to_re "imqpqsydrtwp") re.allchar (str.to_re "plsvakb") re.allchar (str.to_re "rkvpekzsjuanngwv") re.allchar (str.to_re "h") (re.* re.allchar) (str.to_re "edkoarqbxdecvywswjzeqmlmdxdcfrzsnd") (re.* re.allchar) (str.to_re "qglaryrbmkicbrrjoevymb") re.allchar (str.to_re "hwblugpoqwuspvpnpmkdayjauihipxkb") (re.* re.allchar) (str.to_re "nmlvqtuq") (re.* re.allchar) (str.to_re "wwffig") re.allchar (str.to_re "ctmpfefpksfedjcrhgwirrsypuuzwiezhdndpddk") re.allchar (str.to_re "gskxqadmqdjlipr") re.allchar (str.to_re "xwdgbnafbzeiyzlicozjcffdxpdrhajjzxkliycqyzj") (re.* re.allchar) re.allchar (str.to_re "sfnjtkcejwtitzcfipjyvvxunfkkefyznjghn") re.allchar (str.to_re "vax") re.allchar (str.to_re "eqyfacv") re.allchar (str.to_re "laihksskrayywr") (re.* re.allchar) (str.to_re "pxrpny") re.allchar (str.to_re "ryuspdvfwprxgywqco") (re.* re.allchar) (str.to_re "azihplswplgxptyuornwnh") (re.* re.allchar) (str.to_re "zjoxyiidyqpw") (re.* re.allchar) (str.to_re "caphcvg") (re.* re.allchar) (str.to_re "knlrdyjy") re.allchar (str.to_re "gcpkt") re.allchar (str.to_re "hzumahcbnkxpbkmxnxyhaeaiaynuxoigikvkteizhnap") re.allchar (str.to_re "zhda") (re.* re.allchar) re.allchar (str.to_re "mznnm") re.allchar (str.to_re "hserrpgipgwhvungrxjvdmh") re.allchar (str.to_re "wpbojvgneleeyjhtlcnailzcexshtts") (re.* re.allchar) (str.to_re "knhjjvkuntltw") (re.* re.allchar) (str.to_re "wvarooarchvggibhvbupacnhpearzlncpoojywhmtmtocehmgkrrgcsokojbpivzgmrzk") (re.* re.allchar) (str.to_re "mftv") re.allchar (str.to_re "wpsfrokl") (re.* re.allchar) (str.to_re "gcbpqbwrydrexypnqzirafl") re.allchar (str.to_re "zxikcrvilgrudbjvv") re.allchar (str.to_re "arul") (re.* re.allchar) (str.to_re "ikuxtkpsrumwdfprhr") (re.* re.allchar) (str.to_re "kcpklpln") (re.* re.allchar) (str.to_re "wmkofmrwpgoafebo") (re.* re.allchar) (str.to_re "vvytwkcgbj") re.allchar (str.to_re "rklpmjcjanq") re.allchar (re.* re.allchar) (str.to_re "dgrbyywfvwchaomn") (re.* re.allchar) re.allchar (str.to_re "idyttzormfzbje") (re.* re.allchar) (str.to_re "qtkdjvi") re.allchar (str.to_re "zaygf") (re.* re.allchar) (str.to_re "pygckhxt") (re.* re.allchar) (str.to_re "qceoigivusmiatqnjopdvivabh") (re.* re.allchar) (str.to_re "plgsucws") re.allchar (str.to_re "cvlokbgjylm") (re.* re.allchar) (str.to_re "utr") (re.* re.allchar) (str.to_re "qhuypexeupbkrlbdytkjc") re.allchar (str.to_re "olhpto") (re.* re.allchar) (str.to_re "yjbsmsjziadujoowiqxgjctvenhcshxusgmpdrnvr") re.allchar (str.to_re "bdjwtppdlzr") re.allchar (str.to_re "zbrbuwbkwybtivnsccioaaxhsddncjzlrhothgkbslppdepneszuxrfyzfpbecsjifhinodnpo") re.allchar (str.to_re "cfd") re.allchar (re.* re.allchar) (str.to_re "ijrcwgizoaws") re.allchar (str.to_re "fwgqydqsi") re.allchar (str.to_re "az") re.allchar (str.to_re "cdppcsmgwkmmclyestkotkzozsicbqyrasa") (re.* re.allchar) (str.to_re "eiiayrdeaeywaasomg") (re.* re.allchar) (str.to_re "lqeecma") re.allchar (str.to_re "nviny") (re.* re.allchar) (str.to_re "rlrfwcht") re.allchar (str.to_re "ph") (re.* re.allchar) (str.to_re "pvy") (re.* re.allchar) (str.to_re "ufsgvrzdtlsctw") (re.* re.allchar) (str.to_re "vvenuaouwchlrjxzayfenn") re.allchar re.allchar (str.to_re "xakdzdo") re.allchar (str.to_re "qrdmslinhtnbxvtwwa") re.allchar (str.to_re "hlyqtomox") re.allchar re.allchar (str.to_re "qctfhmcwsifhqfs") (re.* re.allchar) (str.to_re "vinqifenajcmfhqdoechfqablwlzebzmrbwikwbhd") (re.* re.allchar) (str.to_re "sjbcfudrlmxfdn") (re.* re.allchar) (str.to_re "ki") (re.* re.allchar) (str.to_re "gh") (re.* re.allchar) (str.to_re "djviwpxvhgawaylrsamcdcqzuxwk") (re.* re.allchar) (str.to_re "jvmnwsibnedgodvggfopz") re.allchar (str.to_re "xvfuiicvxhashrhiluqkrlxbumr") re.allchar (str.to_re "qgne") (re.* re.allchar) (str.to_re "ctkbxcnssfrdarah") (re.* re.allchar) (str.to_re "zjsicdwtgyupcedzgiqahrvzsadne") re.allchar (str.to_re "hkfvquldwjkqzvyebhbdbh") (re.* re.allchar) (str.to_re "xnshshr") re.allchar (str.to_re "mqyfmh") re.allchar (str.to_re "ubfk") (re.* re.allchar) (str.to_re "nepvcykfxvyvjzcotxfzeehxlvtslxhstnaqdbeuvssumaovifbmxiluk") )  )))
(check-sat)
(exit)
